1828.37 0
0 28 50 51 66 1 88 7 46 14 15 57 26 12 4 73 0
0 2 22 75 72 40 92 91 17 45 52 31 33 35 68 80 0
0 53 87 97 95 8 9 0
0 10 32 18 60 59 93 86 100 37 39 0
0 99 85 98 67 77 3 78 34 65 30 19 63 0
0 89 6 94 61 84 5 36 64 62 70 71 24 25 54 74 69 76 0
0 21 96 43 41 23 56 55 29 79 81 48 11 90 27 0
0 16 38 44 42 13 58 83 82 47 49 20 0
